137670,137670,137670,137670,137599,137599,134913,134913,132441,125323,119016,116455,111840,110245,107185,105621,104250,99055,95739,94065,92828,92828,92715,92715,92135,91894,91894,90301,89288,88963,88798,87192,85901,84374,84000,83315,82667,82020,81399,79527,79527,78512,78009,75022,74791,73886,73610,72868,71468,71194,71194,71194,70826,69871,69871,69482,69482,69482,69371,69371,69363,68882,68358,68358,68358,67684,66720,65731,65731,65731,65731,65731,65541,65059,64058,64036,63147,62967,62845,62845,62845,62845,62845,62845,62845,62715,62488,62488,62488,61840,61840,61840,61840,61840,61840,61840,61840,61840,61227,61227,61227,61043,61043,60366,60366,60366,59933,59933,59827,59827,59166,58138,58138,58138,58138,58138,57074,57074,57073,56317,56317,56317,56070,56070,55645,55281,55281,54611,54427,53542,53423,52833,51797,51797,51797,51797,51797,51290,51290,50690,50690,50690,50690,50178,50178,50178,50178,49810,49578,49248,49205,49205,49205,48645,48461,48461,48408,47959,47580,47580,47580,47580,47580,47580,47478,47217,46734,46734,46516,46516,46444,46087,46019,46019,45779,45779,45779,45779,45305,45305,45187,45187,44736,44736,44736,44296,44296,43881,43881,43881,43881,43881,43881,43881,43881,43881,43881,43250,43250,43246,43246,43246,43246,43246,43246,43033,43008,43008,43008,42813,42631,42631,42489,42167,42167,42167,42167,42013,41900,41900,41900,41900,41410,41410,41410,41410,41410,41138,40996,40996,40827,40283,40283,40283,40283,40283,40283,39823,39823,39823,39823,39823,39823,39823,39823,39823,39823,39542,39542,39542,39542,39427,39427,39427,39427,39427,39427,39427,39365,39246,39246,39246,39246,39246,39246,39246,38989,38966,38966,38839,38839,38839,38812,38788,38566,38566,38566,38566,38423,38423,38423,38423,38122,38122,38122,38122,38112,37998,37998,37976,37642,37642,37642,37642,37642,37642,37461,37403,37403,37403,37403,37403,37007,37007,37007,37007,37007,37007,37007,36962,36962,36962,36962,36588,36588,36588,36515,36515,36514,36514,36301,36301,36301,36301,36028,36028,36028,35880,35880,35837,35837,35795,35795,35795,35795,35795,35795,35649,35624,35624,35351,35351,35351,35351,35351,35351,35351,35228,35228,35216,35216,35216,35216,35192,35162,35115,35037,35037,34878,34878,34878,34878,34800,34549,34501,34501,34501,34383,34313,34313,33750,33750,33750,33750,33750,33750,33750,33750,33750,33750,33750,33381,33381,33381,33381,33381,33381,33381,33381,33381,33381,33381,33381,33381,33381,33381,33381,33381,33381,33381,33381,33381,33381,33381,33381,33381,33381,33381,33381,33300,33300,32936,32936,32764,32638,32638,32638,32254,32254,32254,32254,32254,32180,32180,32180,32172,32172,31775,31775,31775,31775,31775,31671,31671,31671,31531,31531,31443,31443,31443,31443,31443,31332,31332,31332,31332,31332,31332,31225,31225,31225,31133,31133,31133,31133,31133,31133,31133,31058,31058,30996,30996,30996,30996,30996,30996,30996,30558,30558,30558,30558,30558,30558,30558,30558,30493,30327,30327,30327,30327,30327,30327,30327,30292,30265,30163,30163,30163,30163,30163,30163,30163,30111,30111,29919,29919,29902,29902,29902,29589,29589,29589,29589,29589,29589,29589,29589,29589,29589,29589,29589,29589,29589,29577,29503,29503,29503,29503,29503,29395,29273,29273,29273,29273,29273,29273,29273,29273,29273,29273,29270,29270,29198,29198,29198,29198,29198,29198,29035,29035,29035,29035,29035,29035,29035,29035,29035,29035,29035,29035,29035,28973,28973,28906,28906,28906,28906,28906,28906,28906,28906,28906,28906,28906,28890,28890,28890,28890,28797,28797,28797,28797,28797,28797,28797,28797,28797,28797,28729,28729,28729,28729,28729,28729,28687,28687,28687,28605,28605,28579,28579,28579,28579,28579,28579,28579,28579,28579,28498,28498,28498,28498,28498,28498,28498,28498,28498,28438,28438,28427,28427,28427,28422,28422,28422,28422,28417,28417,28346,28346,28346,28346,28346,28346,28346,28346,28346,28346,28346,28346,28346,28307,28307,28307,28307,28307,28307,28307,28307,28307,28307,28307,28277,28277,28277,28277,27913,27913,27913,27832,27832,27832,27832,27832,27786,27786,27769,27769,27769,27766,27766,27766,27766,27766,27766,27714,27714,27714,27714,27714,27597,27597,27597,27597,27597,27576,27576,27576,27576,27576,27576,27576,27576,27576,27576,27576,27330,27330,27330,27330,27330,27283,27283,27283,27283,27283,27283,27241,27179,27179,27179,27179,27179,27179,27179,27146,27146,27146,27146,27146,27146,27146,27146,27146,27146,27146,27146,27146,27146,27146,27084,27029,27029,27029,26900,26900,26900,26900,26900,26900,26900,26900,26900,26900,26900,26900,26900,26900,26900,26900,26900,26900,26900,26900,26884,26884,26884,26884,26884,26884,26884,26884,26884,26825,26825,26825,26825,26825,26825,26825,26825,26825,26825,26809,26809,26809,26809,26809,26809,26809,26809,26809,26809,26809,26809,26809,26809,26809,26809,26809,26809,26809,26809,26809,26809,26809,26809,26809,26809,26809,26809,26809,26809,26809,26809,26809,26809,26809,26809,26809,26809,26809,26809,26809,26809,26809,26809,26809,26809,26809,26705,26705,26705,26705,26705,26705,26705,26705,26705,26705,26705,26705,26705,26705,26705,26705,26705,26705,26593,26593,26593,26593,26593,26593,26593,26593,26593,26593,26593,26593,26593,26593,26593,26593,26593,26593,26593,26593,26593,26593,26593,26593,26593,26593,26593,26593,26593,26593,26593,26593,26593,26593,26593,26593,26593,26403,26403,26403,26403,26403,26403,26403,26403,26403,26403,26403,26403,26403,26403,26403,26403,26403,26403,26403,26403,26403,26403,26403,26403,26403,26403,26403,26403,26403,26403,26403,26403,26403,26403,26403,26403,26403,26403,26403,26403,26403,26403,26403,26403,26403,26403,26403,26403,26403,26403,26403,26403,26403,26403,26403,26403,26403,26403,26403,26403,26403,26403,26403,26403,26403,26403,26403,26403,26403,26403,26403,26403,26403,26403,26403,26403,26403,26403,26403,26403,26403,26403,26403,26403,26403,26403,26403,26403,26403,26403,26403,26403,26403,26403,26403,26403,26403,26403,26403,26403,26403,26403,26403,26403,26403,26403,26403,26403,26403,26403,26403,26403,26403,26403,26403,26403,26403,26403,26403,26403,26403,26403,26403,26403,26403,26403,26403,26403,26403,26403,26403,26403,26403,26403,26403,26403,26403,26403,26403,26403,26403,26403,26403,26403,26403,26403,26403,26403,26403,26403,26403,26403,26403,26403,26403,26403,26403,26403,26403,26341,26341,26341,26341,26341,26341,26341,26341,26341,26341,26341,26341,26341,26341,26341,26341,26341,26341,26341,26341,26341,26341,26341,26341,26341,26341,26341,26341,26341,26341,26341,26341,26341,26341,26341,26341,26341,26341,26341,26341,26341,26341,26341,26341,26341,26341,26341,26341,26341,26341,26341,26341,26341,26341,26341,26341,26341,26341,26341,26341,26341,26341,26341,26341,26341,26341,26341,26341,26341,26341,26341,26341,26341,26341,26341,26341,26341,26341,26341,26341,26341,26341,26341,26341,26341,26341,26341,26341,26341,26341,26341,26341,26341,26341,26341,26341,26341,26341,26341,26341,26341,26341,26341,26341,26341,26341,26341,26341,26341,26341,26341,26341,26341,26341,26341,26341,26341,26341,26341,26341,26341,26341,26341,26341,26341,26341,26341,26341,26341,26341,26341,26341,26341,26341,26341,26341,26341,26341,26341,26341,26341,26341,26341,26341,26341,26341,26341,26341,26341,26341,26341,26341,26341,26341,26341,26341,26341,26341,26341,26341,26341,26341,26341,26341,26341,26341,26341,26341,26341,26341,26341,26341,26341,26341,26341,26341,26341,26341,26341,26341,26341,26341,26341,26341,26341,26341,26341,26341,26341,26341,26341,26341,26341,26341,26341,26341,26341,26341,26341,26341,26341,26341,26341,26341,26341,26341,26341,26341,26341,26341,26341,26341,26341,26341,26341,26341,26341,26341,26341,26341,26341,26341,26341,26341,26341,26341,26341,26341,26341,26341,26341,26341,26341,26341,26341,26341,26341,26341,26341,26341,26341,26341,26341,26341,26341,26341,26341,26341,26341,26341,26341,26341,26341,26341,26341,26341,26341,26341,26341,26341,26341,26341,26341,26341,26341,26341,26341,26341,26341,26341,26341,26341,26341,26341,26341,26341,26341,26341,26341,26341,26341,26341,26341,26341,26341,26341,26341,26341,26341,26341,26341,26341,26341,26341,26341,26341,26341,26341,26341,26341,26341,26341,26341,26341,26341,26341,26341,26341,26341,26341,26341,26341,26341,26341,26341,26341,26341,26341,26341,26341,26341,26341,26341,26341,26341,26341,26341,26341,26341,26341,26341,26341,26341,26341,26341,26341,26341,26341,26341,26341,26341,26341,26341,26341,26341,26341,26341,26341,26341,26341,26341,26341,26341,26341,26341,26341,26341,26341,26341,26341,26341,26341,26341,26341,26341,26341,26341,26341,26341,26341,26341,26341,26341,26341,26341,26341,26341,26341,26341,26341,26341,26341,26341,26341,26341,26341,26341,26341,26341,26341,26341,26341,26341,26341,26341,26341,26341,26341,26341,26341,26341,26341,26341,26341,26341,26341,26341,26341,26341,26341,26341,26341,26341,26341,26341,26341,26341,26341,26341,26341,26341,26341,26341,26341,26341,26341,26341,26341,26341,26341,26341,26341,26341,26341,26341,26341,26341,26341,26341,26341,26341,26341,26341,26341,26341,26341,26341,26341,26341,26341,26341,26341,26341,26341,26341,26341,26341,26341,26341,26341,26341,26341,26341,26341,26341,26341,26341,26341,26341,26341,26341,26341,26341,26341,26341,26341,26341,26341,26341,26341,26341,26341,26341,26341,26341,26341,26341,26341,26341,26341,26341,26341,26341,26341,26341,26341,26341,26341,26341,26341,26341,26341,26341,26341,26341,26341,26341,26341,26341,26341,26341,26341,26341,26341,26341,26341,26341,26341,26341,26341,26341,26341,26341,26341,26341,26341,26341,26341,26341,26341,26341,26341,26341,26341,26341,26341,26341,26341,26341,26341,26341,26341,26341,26341,26341,26341,26341,26341,26341,26341,26341,26341,26341,26341,26341,26341,26341,26341,26341,26341,26341,26341,26341,26341,26341,26341,26341,26341,26341,26341,26341,26341,26341,26341,26341,26341,26341,26341,26341,26341,26341,26341,26341,26341,26341,26341,26341,26341,26341,26341,26341,26341,26341,26341,26341,26341,26341,26341,26341,26341,26341,26341,26341,26341,26341,26341,26341,26341,26341,26341,26341,26341,26341,26341,26341,26341,26341,26341,26341,26341,26341,26341,26341,26341,26341,26341,26341,26341,26341,26341,26341,26341,26341,26341,26341,26341,26341,26341,26341,26341,26341,26341,26341,26341,26341,26341,26341,26341,26341,26341,26341,26341,26341,26341,26341,26341,26341,26341,26341,26341,26341,26341,26341,26341,26341,26341,26341,26341,26341,26341,26341,26341,26341,26341,26341,26341,26341,26341,26341,26341,26341,26341,26341,26341,26341,26341,26341,26341,26341,26341,26341,26341,26341,26341,26341,26341,26341,26341,26341,26341,26341,26341,26341,26341,26341,26341,26341,26341,26341,26341,26341,26341,26341,26341,26341,26341,26341,26341,26341,26341,26341,26341,26341,26341,26341,26341,26341,26341,26341,26341,26341,26341,26341,26341,26341,26341,26341,26341,26341,26341,26341,26341,26341,26341,26341,26341,26341,26341,26341,26341,26341,26341,26341,26341,26341,26341,26341,26341,26341,26341,26341,26341,26341,26341,26341,26341,26341,26341,26341,26341,26341,26341,26341,26341,26341,26341,26341,26341,26341,26341,26341,26341,26341,26341,26341,26341,26341,26341,26341,26341,26341,26341,26341,26341,26341,26341,26341,26341,26341,26341,26341,26341,26341,26341,26341,26341,26341,26341,26341,26341,26341,26341,26341,26341,26341,26341,26341,26341,26341,26341,26341,26341,26341,26341,26341,26341,26341,26341,26341,26341,26341,26341,26341,26341,26341,26341,26341,26341,26341,26341,26341,26341,26341,26341,26341,26341,26341,26341,26341,26341,26341,26341,26341,26341,26341,26341,26341,26341,26341,26341,26341,26341,26341,26341,26341,26341,26341,26341,26341,26341,26341,26341,26341,26341,26341,26341,26341,26341,26341,26341,26341,26341,26341,26341,26341,26341,26341,26341,26341,26341,26341,26341,26341,26341,26341,26341,26341,26341,26341,26341,26341,26341,26341,26341,26341,26341,26341,26341,26341,26341,26341,26341,26341,26341,26341,26341,26341,26341,26341,26341,26341,26341,26341,26341,26341,26341,26341,26341,26341,26341,26341,26341,26341,26341,26341,26341,26341,26341,26341,26341,26341,26341,26341,26341,26341,26341,26341,26341,26341,26341,26341,26341,26341,26341,26341,26341,26341,26341,26341,26341,26341,26341,26341,26341,26341,26341,26341,26341,26341,26341,26341,26341,26341,26341,26341,26341,26341,26341,26341,26341,26341,26341,26341,26341,26341,26341,26341,26341,26341,26341,26341,26341,26341,26341,26341,26341,26341,26341,26341,26341,26341,26341,26341,26341,26341,26341,26341,26341,26341,26341,26341,26341,26341,26341,26341,26341,26341,26341,26341,26341,26341,26341,26341,26341,26341,26341,26341,26341,26341,26341,26341,26341,26341,26341,26341,26341,26341,26341,26341,26341,26341,26341,26341,26341,26341,26341,26341,26341,26341,26341,26341,26341,26341,26341,26341,26341,26341,26341,26341,26341,26341,26341,26341,26341,26341,26341,26341,26341,26341,26341,26341,26341,26341,26341,26341,26341,26341,26341,26341,26341,26341,26341,26341,26341,26341,26341,26341,26341,26341,26341,26341,26341,26341,26341,26341,26341,26341,26341,26341,26341,26341,26341,26341,26341,26341,26341,26341,26341,26341,26341,26341,26341,26341,26341,26341,26341,26341,26341,26341,26341,26341,26341,26341,26341,26341,26341,26341,26341,26341,26341,26341,26341,26341,26341,26341,26341,26341,26341,26341,26341,26341,26341,26341,26341,26341,26341,26341,26341,26341,26341,26341,26341,26341,26341,26341,26341,26341,26341,26341,26341,26341,26341,26341,26341,26341,26341,26341,26341,26341,26341,26341,26341,26341,26341,26341,26341,26341,26341,26341,26341,26341,26341,26341,26341,26341,26341,26341,26341,26341,26341,26341,26341,26341,26341,26341,26341,26341,26341,26341,26341,26341,26341,26341,26341,26341,26341,26341,26341,26341,26341,26341,26341,26341,26341,26341,26341,26341,26341,26341,26341,26341,26341,26341,26341,26341,26341,26341,26341,26341,26341,26341,26341,26341,26341,26341,26341,26341,26341,26341,26341,26341,26341,26341,26341,26341,26341,26341,26341,26341,26341,26341,26341,26341,26341,26341,26341,26341,26341,26341,26341,26341,26341,26341,26341,26341,26341,26341,26341,26341,26341,26341,26341,26341,26341,26341,26341,26341,26341,26341,26341,26341,26341,26341,26341,26341,26341,26341,26341,26341,26341,26341,26341,26341,26341,26341,26341,26341,26341,26341,26341,26341,26341,26341,26341,26341,26341,26341,26341,26341,26341,26341,26341,26341,26341,26341,26341,26341,26341,26341,26341,26341,26341,26341,26341,26341,26341,26341,26341,26341,26341,26341,26341,26341,26341,26341,26341,26341,26341,26341,26341,26341,26341,26341,26341,26341,26341,26341,26341,26341,26341,26341,26341,26341,26341,26341,26341,26341,26341,26341,26341,26341,26341,26341,26341,26341,26341,26341,26341,26341,26341,26341,26341,26341,26341,26341,26341,26341,26341,26341,26341,26341,26341,26341,26341,26341,26341,26341,26341,26341,26341,26341,26341,26341,26341,26341,26341,26341,26341,26341,26341,26341,26341,26341,26341,26341,26341,26341,26341,26341,26341,26341,26341,26341,26341,26341,26341,26341,26341,26341,26341,26341,26341,26341,26341,26341,26341,26341,26341,26341,26341,26341,26341,26341,26341,26341,26341,26341,26341,26341,26341,26341,26341,26341,26341,26341,26341,26341,26341,26341,26341,26341,26341,26341,26341,26341,26341,26341,26341,26341,26341,26341,26341,26341,26341,26341,26341,26341,26341,26341,26341,26341,26341,26341,26341,26341,26341,26341,26341,26341,26341,26341,26341,26341,26341,26341,26341,26341,26341,26341,26341,26341,26341,26341,26341,26341,26341,26341,26341,26341,26341,26341,26341,26341,26341,26341,26341,26341,26341,26341,26341,26341,26341,26341,26341,26341,26341,26341,26341,26341,26341,26341,26341,26341,26341,26341,26341,26341,26341,26341,26341,26341,26341,26341,26341,26341,26341,26341,26341,26341,26341,26341,26341,26341,26341,26341,26341,26341,26341,26341,26341,26341,26341,26341,26341,26341,26341,26341,26341,26341,26341,26341,26341,26341,26341,26341,26341,26341,26341,26341,26341,26341,26341,26341,26341,26341,26341,26341,26341,26341,26341,26341,26341,26341,26341,26341,26341,26341,26341,26341,26341,26341,26341,26341,26341,26341,26341,26341,26341,26341,26341,26341,26341,26341,26341,26341,26341,26341,26341,26341,26341,26341,26341,26341,26341,26341,26341,26341,26341,26341,26341,26341,26341,26341,26341,26341,26341,26341,26341,26341,26341,26341,26341,26341,26341,26341,26341,26341,26341,26341,26341,26341,26341,26341,26341,26341,26341,26341,26341,26341,26341,26341,26341,26341,26341,26341,26341,26341,26341,26341,26341,26341,26341,26341,26341,26341,26341,26341,26341,26341,26341,26341,26341,26341,26341,26341,26341,26341,26341,26341,26341,26341,26341,26341,26341,26341,26341,26341,26341,26341,26341,26341,26341,26341,26341,26341,26341,26341,26341,26341,26341,26341,26341,26341,26341,26341,26341,26341,26341,26341,26341,26341,26341,26341,26341,26341,26341,26341,26341,26341,26341,26341,26341,26341,26341,26341,26341,26341,26341,26341,26341,26341,26341,26341,26341,26341,26341,26341,26341,26341,26341,26341,26341,26341,26341,26341,26341,26341,26341,26341,26341,26341,26341,26341,26341,26341,26341,26341,26341,26341,26341,26341,26341,26341,26341,26341,26341,26341,26341,26341,26341,26341,26341,26341,26341,26341,26341,26341,26341,26341,26341,26341,26341,26341,26341,26341,26341,26341,26341,26341,26341,26341,26341,26341,26341,26341,26341,26341,26341,26341,26341,26341,26341,26341,26341,26341,26341,26341,26341,26341,26341,26341,26341,26341,26341,26341,26341,26341,26341,26341,26341,26341,26341,26341,26341,26341,26341,26341,26341,26341,26341,26341,26341,26341,26341,26341,26341,26341,26341,26341,26341,26341,26341,26341,26341,26341,26341,26341,26341,26341,26341,26341,26341,26341,26341,26341,26341,26341,26341,26341,26341,26341,26341,26341,26341,26341,26341,26341,26341,26341,26341,26341,26341,26341,26341,26341,26341,26341,26341,26341,26341,26341,26341,26341,26341,26341,26341,26341,26341,26341,26341,26341,26341,26341,26341,26341,26341,26341,26341,26341,26341,26341,26341,26341,26341,26341,26341,26341,26341,26341,26341,26341,26341,26341,26341,26341,26341,26341,26341,26341,26341,26341,26341,26341,26341,26341,26341,26341,26341,26341,26341,26341,26341,26341,26341,26341,26341,26341,26341,26341,26341,26341,26341,26341,26341,26341,26341,26341,26341,26341,26341,26341,26341,26341,26341,26341,26341,26341,26341,26341,26341,26341,26341,26341,26341,26341,26341,26341,26341,26341,26341,26341,26341,26341,26341,26341,26341,26341,26341,26341,26341,26341,26341,26341,26341,26341,26341,26341,26341,26341,26341,26341,26341,26341,26341,26341,26341,26341,26341,26341,26341,26341,26341,26341,26341,26341,26341,26341,26341,26341,26341,26341,26341,26341,26341,26341,26341,26341,26341,26341,26341,26341,26341,26341,26341,26341,26341,26341,26341,26341,26341,26341,26341,26341,26341,26341,26341,26341,26341,26341,26341,26341,26341,26341,26341,26341,26341,26341,26341,26341,26341,26341,26341,26341,26341,26341,26341,26341,26341,26341,26341,26341,26341,26341,